sat
(
(define-fun sym799 () String "G")
(define-fun sym209 () String "Y")
(define-fun sym2528 () String "G")
(define-fun sym2946 () String "G")
(define-fun sym551 () String "G")
(define-fun sym2744 () String "G")
(define-fun sym1667 () String "G")
(define-fun sym1235 () String "G")
(define-fun sym1026 () String "G")
(define-fun sym3259 () String "A")
(define-fun sym1894 () String "L")
(define-fun sym2312 () String "G")
(define-fun sym1451 () String "G")
(define-fun sym2110 () String "G")
(define-fun sym161 () String "")
(define-fun sym3162 () String "G")
)
